; benchmark generated from python API
(set-info :status unknown)
(declare-fun syscall_stub_newfstatat_83_64 () (_ BitVec 64))
(declare-fun mem_c0080014_89_32 () (_ BitVec 32))
(declare-fun mem_c0080018_88_32 () (_ BitVec 32))
(declare-fun mem_c0080024_86_32 () (_ BitVec 32))
(declare-fun mem_c0080020_87_32 () (_ BitVec 32))
(declare-fun mem_c0080010_84_32 () (_ BitVec 32))
(declare-fun mem_c0080008_85_32 () (_ BitVec 32))
(declare-fun mem_c0000f45_79_992 () (_ BitVec 992))
(declare-fun mem_c0001010_98_32 () (_ BitVec 32))
(declare-fun mem_fffffffffffffff0_163_128 () (_ BitVec 128))
(assert
 (let ((?x47 ((_ extract 31 0) syscall_stub_newfstatat_83_64)))
 (bvule ?x47 (_ bv4294963200 32))))
(assert
 (let ((?x123 (bvadd mem_c0080018_88_32 mem_c0080014_89_32)))
 (let ((?x129 (concat (_ bv0 32) ?x123)))
 (let ((?x657281 (concat (concat (_ bv0 26) mem_c0080024_86_32) (_ bv0 1))))
 (let ((?x201 (concat (_ bv0 27) mem_c0080024_86_32)))
 (let ((?x655408 (bvadd ?x201 ?x657281)))
 (let ((?x649096 (concat ?x655408 (_ bv0 3))))
 (let ((?x661503 (concat (concat (_ bv0 29) mem_c0080024_86_32) (_ bv0 1))))
 (let ((?x190 (concat (_ bv0 30) mem_c0080024_86_32)))
 (let ((?x650725 (bvadd (bvadd ?x190 ?x661503) ?x649096)))
 (let ((?x661498 (concat ?x650725 (_ bv0 2))))
 (let ((?x168 (concat (_ bv0 32) mem_c0080020_87_32)))
 (let ((?x650579 (bvadd ?x168 ?x661498)))
 (let ((?x656625 (concat (concat (_ bv0 29) mem_c0080010_84_32) (_ bv0 1))))
 (let ((?x161 (concat (_ bv0 30) mem_c0080010_84_32)))
 (let ((?x654752 (bvadd ?x161 ?x656625)))
 (let ((?x661510 (concat ?x654752 (_ bv0 2))))
 (let ((?x143 (concat (_ bv0 32) mem_c0080008_85_32)))
 (let ((?x655599 (bvadd ?x143 ?x661510)))
 (let (($x650638 (bvsle ?x650579 ?x655599)))
 (let ((?x654584 (ite $x650638 ?x655599 ?x650579)))
 (let (($x661499 (bvsle ?x129 ?x654584)))
 (let ((?x655513 (ite $x661499 ?x654584 ?x129)))
 (let (($x650691 (= (_ bv0 64) ?x655513)))
 (not $x650691)))))))))))))))))))))))))
(assert
 (let ((?x2189 ((_ extract 900 900) mem_c0000f45_79_992)))
 (= (_ bv0 1) ?x2189)))
(assert
 (let ((?x2374 ((_ extract 839 832) mem_c0000f45_79_992)))
 (let ((?x2364 ((_ extract 831 824) mem_c0000f45_79_992)))
 (let ((?x2349 ((_ extract 823 816) mem_c0000f45_79_992)))
 (let ((?x2357 ((_ extract 815 808) mem_c0000f45_79_992)))
 (let ((?x2362 ((_ extract 807 800) mem_c0000f45_79_992)))
 (let ((?x2363 ((_ extract 799 792) mem_c0000f45_79_992)))
 (let ((?x593 (concat (concat ((_ extract 783 776) mem_c0000f45_79_992) ((_ extract 791 784) mem_c0000f45_79_992)) ?x2363)))
 (let ((?x4215 (concat (concat (concat (concat ?x593 ?x2362) ?x2357) ?x2349) ?x2364)))
 (let ((?x3812 (concat ?x4215 ?x2374)))
 (let ((?x3646 (bvmul (_ bv18446744073709551615 64) ?x3812)))
 (let ((?x2427 ((_ extract 775 768) mem_c0000f45_79_992)))
 (let ((?x2419 ((_ extract 767 760) mem_c0000f45_79_992)))
 (let ((?x2429 ((_ extract 759 752) mem_c0000f45_79_992)))
 (let ((?x2417 ((_ extract 751 744) mem_c0000f45_79_992)))
 (let ((?x2410 ((_ extract 743 736) mem_c0000f45_79_992)))
 (let ((?x2411 ((_ extract 735 728) mem_c0000f45_79_992)))
 (let ((?x4124 (concat (concat ((_ extract 719 712) mem_c0000f45_79_992) ((_ extract 727 720) mem_c0000f45_79_992)) ?x2411)))
 (let ((?x3823 (concat (concat (concat (concat (concat ?x4124 ?x2410) ?x2417) ?x2429) ?x2419) ?x2427)))
 (let ((?x3827 (bvadd ?x3823 ?x3646)))
 (let ((?x2482 ((_ extract 63 63) ?x3827)))
 (let (($x2285 (= (_ bv1 1) ?x2482)))
 (not $x2285)))))))))))))))))))))))
(assert
 (let ((?x4996 ((_ extract 837 832) mem_c0000f45_79_992)))
 (let (($x3467 (bvule ?x4996 (_ bv48 6))))
 (not $x3467))))
(assert
 (let ((?x2357 ((_ extract 815 808) mem_c0000f45_79_992)))
 (let ((?x2417 ((_ extract 751 744) mem_c0000f45_79_992)))
 (let (($x1690 (= ?x2417 ?x2357)))
 (let (($x3670 (not $x1690)))
 (let ((?x2362 ((_ extract 807 800) mem_c0000f45_79_992)))
 (let ((?x2410 ((_ extract 743 736) mem_c0000f45_79_992)))
 (let (($x1703 (= ?x2410 ?x2362)))
 (let (($x3664 (not $x1703)))
 (let ((?x2345 ((_ extract 783 776) mem_c0000f45_79_992)))
 (let ((?x2400 ((_ extract 719 712) mem_c0000f45_79_992)))
 (let (($x1701 (= ?x2400 ?x2345)))
 (let (($x3671 (not $x1701)))
 (let ((?x2363 ((_ extract 799 792) mem_c0000f45_79_992)))
 (let ((?x2411 ((_ extract 735 728) mem_c0000f45_79_992)))
 (let (($x1704 (= ?x2411 ?x2363)))
 (let (($x3672 (not $x1704)))
 (let ((?x2346 ((_ extract 791 784) mem_c0000f45_79_992)))
 (let ((?x2401 ((_ extract 727 720) mem_c0000f45_79_992)))
 (let (($x1693 (= ?x2401 ?x2346)))
 (let (($x4136 (not $x1693)))
 (let ((?x2364 ((_ extract 831 824) mem_c0000f45_79_992)))
 (let ((?x2419 ((_ extract 767 760) mem_c0000f45_79_992)))
 (let (($x1155 (= ?x2419 ?x2364)))
 (let (($x4137 (not $x1155)))
 (let ((?x2374 ((_ extract 839 832) mem_c0000f45_79_992)))
 (let ((?x2427 ((_ extract 775 768) mem_c0000f45_79_992)))
 (let (($x1152 (= ?x2427 ?x2374)))
 (let (($x4139 (not $x1152)))
 (let ((?x2349 ((_ extract 823 816) mem_c0000f45_79_992)))
 (let ((?x2429 ((_ extract 759 752) mem_c0000f45_79_992)))
 (let (($x1714 (= ?x2429 ?x2349)))
 (let (($x4539 (not $x1714)))
 (or $x4539 $x4139 $x4137 $x4136 $x3672 $x3671 $x3664 $x3670))))))))))))))))))))))))))))))))))
(assert
 (let (($x2293 (= (_ bv0 32) mem_c0001010_98_32)))
 (not $x2293)))
(assert
 (let ((?x2374 ((_ extract 839 832) mem_c0000f45_79_992)))
 (let ((?x2364 ((_ extract 831 824) mem_c0000f45_79_992)))
 (let ((?x2349 ((_ extract 823 816) mem_c0000f45_79_992)))
 (let ((?x2357 ((_ extract 815 808) mem_c0000f45_79_992)))
 (let ((?x2362 ((_ extract 807 800) mem_c0000f45_79_992)))
 (let ((?x2363 ((_ extract 799 792) mem_c0000f45_79_992)))
 (let ((?x593 (concat (concat ((_ extract 783 776) mem_c0000f45_79_992) ((_ extract 791 784) mem_c0000f45_79_992)) ?x2363)))
 (let ((?x4215 (concat (concat (concat (concat ?x593 ?x2362) ?x2357) ?x2349) ?x2364)))
 (let ((?x3812 (concat ?x4215 ?x2374)))
 (let ((?x6424 (bvand ?x3812 (_ bv18446744073709551600 64))))
 (bvule ?x6424 (_ bv18446744073709551600 64)))))))))))))
(assert
 (let ((?x2374 ((_ extract 839 832) mem_c0000f45_79_992)))
 (let ((?x2364 ((_ extract 831 824) mem_c0000f45_79_992)))
 (let ((?x2349 ((_ extract 823 816) mem_c0000f45_79_992)))
 (let ((?x2357 ((_ extract 815 808) mem_c0000f45_79_992)))
 (let ((?x2362 ((_ extract 807 800) mem_c0000f45_79_992)))
 (let ((?x2363 ((_ extract 799 792) mem_c0000f45_79_992)))
 (let ((?x593 (concat (concat ((_ extract 783 776) mem_c0000f45_79_992) ((_ extract 791 784) mem_c0000f45_79_992)) ?x2363)))
 (let ((?x4215 (concat (concat (concat (concat ?x593 ?x2362) ?x2357) ?x2349) ?x2364)))
 (let ((?x3812 (concat ?x4215 ?x2374)))
 (let ((?x6424 (bvand ?x3812 (_ bv18446744073709551600 64))))
 (= (_ bv18446744073709551600 64) ?x6424))))))))))))
(assert
 (let ((?x6423 ((_ extract 835 832) mem_c0000f45_79_992)))
 (let ((?x5454 (concat (_ bv0 4) ?x6423)))
 (let ((?x5319 (bvand ?x5454 (_ bv31 8))))
 (let ((?x5446 ((_ zero_extend 56) ?x5319)))
 (let ((?x76531 ((_ extract 7 0) mem_fffffffffffffff0_163_128)))
 (let (($x72760 (= (_ bv10 8) ?x76531)))
 (let ((?x58929 (ite $x72760 (_ bv1 1) (_ bv0 1))))
 (let ((?x70843 ((_ extract 15 8) mem_fffffffffffffff0_163_128)))
 (let (($x75953 (= (_ bv10 8) ?x70843)))
 (let ((?x59309 (ite $x75953 (_ bv1 1) (_ bv0 1))))
 (let ((?x58597 ((_ extract 23 16) mem_fffffffffffffff0_163_128)))
 (let (($x58964 (= (_ bv10 8) ?x58597)))
 (let ((?x64498 (ite $x58964 (_ bv1 1) (_ bv0 1))))
 (let ((?x58690 ((_ extract 31 24) mem_fffffffffffffff0_163_128)))
 (let (($x76776 (= (_ bv10 8) ?x58690)))
 (let ((?x59133 (ite $x76776 (_ bv1 1) (_ bv0 1))))
 (let ((?x77640 ((_ extract 39 32) mem_fffffffffffffff0_163_128)))
 (let (($x63433 (= (_ bv10 8) ?x77640)))
 (let ((?x63532 (ite $x63433 (_ bv1 1) (_ bv0 1))))
 (let ((?x62490 ((_ extract 47 40) mem_fffffffffffffff0_163_128)))
 (let (($x59208 (= (_ bv10 8) ?x62490)))
 (let ((?x63837 (ite $x59208 (_ bv1 1) (_ bv0 1))))
 (let ((?x76579 ((_ extract 55 48) mem_fffffffffffffff0_163_128)))
 (let (($x62873 (= (_ bv10 8) ?x76579)))
 (let ((?x59239 (ite $x62873 (_ bv1 1) (_ bv0 1))))
 (let ((?x57987 ((_ extract 63 56) mem_fffffffffffffff0_163_128)))
 (let (($x58712 (= (_ bv10 8) ?x57987)))
 (let ((?x62759 (ite $x58712 (_ bv1 1) (_ bv0 1))))
 (let ((?x77319 ((_ extract 71 64) mem_fffffffffffffff0_163_128)))
 (let (($x59058 (= (_ bv10 8) ?x77319)))
 (let ((?x71846 (ite $x59058 (_ bv1 1) (_ bv0 1))))
 (let ((?x63697 ((_ extract 79 72) mem_fffffffffffffff0_163_128)))
 (let (($x58146 (= (_ bv10 8) ?x63697)))
 (let ((?x57735 (ite $x58146 (_ bv1 1) (_ bv0 1))))
 (let ((?x63795 ((_ extract 87 80) mem_fffffffffffffff0_163_128)))
 (let (($x76994 (= (_ bv10 8) ?x63795)))
 (let ((?x64401 (ite $x76994 (_ bv1 1) (_ bv0 1))))
 (let ((?x71702 ((_ extract 95 88) mem_fffffffffffffff0_163_128)))
 (let (($x58127 (= (_ bv10 8) ?x71702)))
 (let ((?x58365 (ite $x58127 (_ bv1 1) (_ bv0 1))))
 (let ((?x58654 ((_ extract 103 96) mem_fffffffffffffff0_163_128)))
 (let (($x58383 (= (_ bv10 8) ?x58654)))
 (let ((?x63176 (ite $x58383 (_ bv1 1) (_ bv0 1))))
 (let ((?x71285 ((_ extract 111 104) mem_fffffffffffffff0_163_128)))
 (let (($x63962 (= (_ bv10 8) ?x71285)))
 (let ((?x63039 (ite $x63962 (_ bv1 1) (_ bv0 1))))
 (let ((?x58576 ((_ extract 119 112) mem_fffffffffffffff0_163_128)))
 (let (($x64005 (= (_ bv10 8) ?x58576)))
 (let ((?x71714 (ite $x64005 (_ bv1 1) (_ bv0 1))))
 (let ((?x63827 ((_ extract 127 120) mem_fffffffffffffff0_163_128)))
 (let (($x62607 (= (_ bv10 8) ?x63827)))
 (let ((?x70538 (ite $x62607 (_ bv1 1) (_ bv0 1))))
 (let ((?x50827 (concat (concat (concat (concat (concat ?x70538 ?x71714) ?x63039) ?x63176) ?x58365) ?x64401)))
 (let ((?x72609 (concat (concat (concat (concat (concat ?x50827 ?x57735) ?x71846) ?x62759) ?x59239) ?x63837)))
 (let ((?x67645 (concat (concat (concat (concat (concat ?x72609 ?x63532) ?x59133) ?x64498) ?x59309) ?x58929)))
 (let ((?x64109 ((_ zero_extend 16) ?x67645)))
 (let ((?x75937 ((_ sign_extend 32) ?x64109)))
 (let ((?x50807 (bvashr ?x75937 ?x5446)))
 (let ((?x51191 ((_ extract 31 0) ?x50807)))
 (and (distinct (_ bv0 32) ?x51191) true)))))))))))))))))))))))))))))))))))))))))))))))))))))))))))))
(assert
 (let ((?x6423 ((_ extract 835 832) mem_c0000f45_79_992)))
 (let ((?x6432 (concat (_ bv0 60) ?x6423)))
 (let ((?x76531 ((_ extract 7 0) mem_fffffffffffffff0_163_128)))
 (let (($x72760 (= (_ bv10 8) ?x76531)))
 (let ((?x58929 (ite $x72760 (_ bv1 1) (_ bv0 1))))
 (let ((?x70843 ((_ extract 15 8) mem_fffffffffffffff0_163_128)))
 (let (($x75953 (= (_ bv10 8) ?x70843)))
 (let ((?x59309 (ite $x75953 (_ bv1 1) (_ bv0 1))))
 (let ((?x58597 ((_ extract 23 16) mem_fffffffffffffff0_163_128)))
 (let (($x58964 (= (_ bv10 8) ?x58597)))
 (let ((?x64498 (ite $x58964 (_ bv1 1) (_ bv0 1))))
 (let ((?x58690 ((_ extract 31 24) mem_fffffffffffffff0_163_128)))
 (let (($x76776 (= (_ bv10 8) ?x58690)))
 (let ((?x59133 (ite $x76776 (_ bv1 1) (_ bv0 1))))
 (let ((?x77640 ((_ extract 39 32) mem_fffffffffffffff0_163_128)))
 (let (($x63433 (= (_ bv10 8) ?x77640)))
 (let ((?x63532 (ite $x63433 (_ bv1 1) (_ bv0 1))))
 (let ((?x62490 ((_ extract 47 40) mem_fffffffffffffff0_163_128)))
 (let (($x59208 (= (_ bv10 8) ?x62490)))
 (let ((?x63837 (ite $x59208 (_ bv1 1) (_ bv0 1))))
 (let ((?x76579 ((_ extract 55 48) mem_fffffffffffffff0_163_128)))
 (let (($x62873 (= (_ bv10 8) ?x76579)))
 (let ((?x59239 (ite $x62873 (_ bv1 1) (_ bv0 1))))
 (let ((?x57987 ((_ extract 63 56) mem_fffffffffffffff0_163_128)))
 (let (($x58712 (= (_ bv10 8) ?x57987)))
 (let ((?x62759 (ite $x58712 (_ bv1 1) (_ bv0 1))))
 (let ((?x77319 ((_ extract 71 64) mem_fffffffffffffff0_163_128)))
 (let (($x59058 (= (_ bv10 8) ?x77319)))
 (let ((?x71846 (ite $x59058 (_ bv1 1) (_ bv0 1))))
 (let ((?x63697 ((_ extract 79 72) mem_fffffffffffffff0_163_128)))
 (let (($x58146 (= (_ bv10 8) ?x63697)))
 (let ((?x57735 (ite $x58146 (_ bv1 1) (_ bv0 1))))
 (let ((?x63795 ((_ extract 87 80) mem_fffffffffffffff0_163_128)))
 (let (($x76994 (= (_ bv10 8) ?x63795)))
 (let ((?x64401 (ite $x76994 (_ bv1 1) (_ bv0 1))))
 (let ((?x71702 ((_ extract 95 88) mem_fffffffffffffff0_163_128)))
 (let (($x58127 (= (_ bv10 8) ?x71702)))
 (let ((?x58365 (ite $x58127 (_ bv1 1) (_ bv0 1))))
 (let ((?x58654 ((_ extract 103 96) mem_fffffffffffffff0_163_128)))
 (let (($x58383 (= (_ bv10 8) ?x58654)))
 (let ((?x63176 (ite $x58383 (_ bv1 1) (_ bv0 1))))
 (let ((?x71285 ((_ extract 111 104) mem_fffffffffffffff0_163_128)))
 (let (($x63962 (= (_ bv10 8) ?x71285)))
 (let ((?x63039 (ite $x63962 (_ bv1 1) (_ bv0 1))))
 (let ((?x58576 ((_ extract 119 112) mem_fffffffffffffff0_163_128)))
 (let (($x64005 (= (_ bv10 8) ?x58576)))
 (let ((?x71714 (ite $x64005 (_ bv1 1) (_ bv0 1))))
 (let ((?x63827 ((_ extract 127 120) mem_fffffffffffffff0_163_128)))
 (let (($x62607 (= (_ bv10 8) ?x63827)))
 (let ((?x70538 (ite $x62607 (_ bv1 1) (_ bv0 1))))
 (let ((?x64858 (concat (concat (concat (concat (concat (_ bv0 48) ?x70538) ?x71714) ?x63039) ?x63176) ?x58365)))
 (let ((?x61977 (concat (concat (concat (concat (concat ?x64858 ?x64401) ?x57735) ?x71846) ?x62759) ?x59239)))
 (let ((?x68508 (concat (concat (concat (concat (concat ?x61977 ?x63837) ?x63532) ?x59133) ?x64498) ?x59309)))
 (let ((?x57475 (concat ?x68508 ?x58929)))
 (let ((?x61781 (bvashr ?x57475 ?x6432)))
 (let ((?x61434 ((_ extract 31 0) ?x61781)))
 (let ((?x68791 ((_ zero_extend 32) ?x61434)))
 (let ((?x64684 ((_ extract 31 31) ?x61781)))
 (let (($x68775 (= (_ bv1 1) ?x64684)))
 (let ((?x68836 (ite $x68775 (_ bv31 64) (_ bv64 64))))
 (let ((?x64416 ((_ extract 30 30) ?x61781)))
 (let (($x64904 (= (_ bv1 1) ?x64416)))
 (let ((?x68686 (ite $x64904 (_ bv30 64) ?x68836)))
 (let ((?x68799 ((_ extract 29 29) ?x61781)))
 (let (($x61020 (= (_ bv1 1) ?x68799)))
 (let ((?x59195 (ite $x61020 (_ bv29 64) ?x68686)))
 (let ((?x69331 ((_ extract 28 28) ?x61781)))
 (let (($x64662 (= (_ bv1 1) ?x69331)))
 (let ((?x61900 (ite $x64662 (_ bv28 64) ?x59195)))
 (let ((?x67674 ((_ extract 27 27) ?x61781)))
 (let (($x68820 (= (_ bv1 1) ?x67674)))
 (let ((?x62165 (ite $x68820 (_ bv27 64) ?x61900)))
 (let ((?x64884 ((_ extract 26 26) ?x61781)))
 (let (($x64817 (= (_ bv1 1) ?x64884)))
 (let ((?x68593 (ite $x64817 (_ bv26 64) ?x62165)))
 (let ((?x69333 ((_ extract 25 25) ?x61781)))
 (let (($x65407 (= (_ bv1 1) ?x69333)))
 (let ((?x68635 (ite $x65407 (_ bv25 64) ?x68593)))
 (let ((?x60099 ((_ extract 24 24) ?x61781)))
 (let (($x68833 (= (_ bv1 1) ?x60099)))
 (let ((?x68520 (ite $x68833 (_ bv24 64) ?x68635)))
 (let ((?x64843 ((_ extract 23 23) ?x61781)))
 (let (($x68629 (= (_ bv1 1) ?x64843)))
 (let ((?x68630 (ite $x68629 (_ bv23 64) ?x68520)))
 (let ((?x64819 ((_ extract 22 22) ?x61781)))
 (let (($x67947 (= (_ bv1 1) ?x64819)))
 (let ((?x68530 (ite $x67947 (_ bv22 64) ?x68630)))
 (let ((?x59093 ((_ extract 21 21) ?x61781)))
 (let (($x67891 (= (_ bv1 1) ?x59093)))
 (let ((?x68842 (ite $x67891 (_ bv21 64) ?x68530)))
 (let ((?x68881 ((_ extract 20 20) ?x61781)))
 (let (($x68876 (= (_ bv1 1) ?x68881)))
 (let ((?x68843 (ite $x68876 (_ bv20 64) ?x68842)))
 (let ((?x68678 ((_ extract 19 19) ?x61781)))
 (let (($x68857 (= (_ bv1 1) ?x68678)))
 (let ((?x68236 (ite $x68857 (_ bv19 64) ?x68843)))
 (let ((?x67983 ((_ extract 18 18) ?x61781)))
 (let (($x68774 (= (_ bv1 1) ?x67983)))
 (let ((?x68601 (ite $x68774 (_ bv18 64) ?x68236)))
 (let ((?x68518 ((_ extract 17 17) ?x61781)))
 (let (($x60794 (= (_ bv1 1) ?x68518)))
 (let ((?x67531 (ite $x60794 (_ bv17 64) ?x68601)))
 (let ((?x63333 ((_ extract 16 16) ?x61781)))
 (let (($x68544 (= (_ bv1 1) ?x63333)))
 (let ((?x65605 (ite $x68544 (_ bv16 64) ?x67531)))
 (let ((?x62164 ((_ extract 15 15) ?x61781)))
 (let (($x60638 (= (_ bv1 1) ?x62164)))
 (let ((?x67215 (ite $x60638 (_ bv15 64) ?x65605)))
 (let ((?x67512 ((_ extract 14 14) ?x61781)))
 (let (($x68692 (= (_ bv1 1) ?x67512)))
 (let ((?x63028 (ite $x68692 (_ bv14 64) ?x67215)))
 (let ((?x68571 ((_ extract 13 13) ?x61781)))
 (let (($x68535 (= (_ bv1 1) ?x68571)))
 (let ((?x67120 (ite $x68535 (_ bv13 64) ?x63028)))
 (let ((?x65091 ((_ extract 12 12) ?x61781)))
 (let (($x65116 (= (_ bv1 1) ?x65091)))
 (let ((?x64938 (ite $x65116 (_ bv12 64) ?x67120)))
 (let ((?x68554 ((_ extract 11 11) ?x61781)))
 (let (($x68292 (= (_ bv1 1) ?x68554)))
 (let ((?x64821 (ite $x68292 (_ bv11 64) ?x64938)))
 (let ((?x59835 ((_ extract 10 10) ?x61781)))
 (let (($x68533 (= (_ bv1 1) ?x59835)))
 (let ((?x61474 (ite $x68533 (_ bv10 64) ?x64821)))
 (let ((?x67437 ((_ extract 9 9) ?x61781)))
 (let (($x67229 (= (_ bv1 1) ?x67437)))
 (let ((?x61871 (ite $x67229 (_ bv9 64) ?x61474)))
 (let ((?x67463 ((_ extract 8 8) ?x61781)))
 (let (($x68529 (= (_ bv1 1) ?x67463)))
 (let ((?x64712 (ite $x68529 (_ bv8 64) ?x61871)))
 (let ((?x60201 ((_ extract 7 7) ?x61781)))
 (let (($x64510 (= (_ bv1 1) ?x60201)))
 (let ((?x67483 (ite $x64510 (_ bv7 64) ?x64712)))
 (let ((?x68300 ((_ extract 6 6) ?x61781)))
 (let (($x68569 (= (_ bv1 1) ?x68300)))
 (let ((?x67499 (ite $x68569 (_ bv6 64) ?x67483)))
 (let ((?x60297 ((_ extract 5 5) ?x61781)))
 (let (($x68513 (= (_ bv1 1) ?x60297)))
 (let ((?x64715 (ite $x68513 (_ bv5 64) ?x67499)))
 (let ((?x68537 ((_ extract 4 4) ?x61781)))
 (let (($x67202 (= (_ bv1 1) ?x68537)))
 (let ((?x68510 (ite $x67202 (_ bv4 64) ?x64715)))
 (let ((?x68690 ((_ extract 3 3) ?x61781)))
 (let (($x68566 (= (_ bv1 1) ?x68690)))
 (let ((?x68598 (ite $x68566 (_ bv3 64) ?x68510)))
 (let ((?x61667 ((_ extract 2 2) ?x61781)))
 (let (($x68514 (= (_ bv1 1) ?x61667)))
 (let ((?x58748 (ite $x68514 (_ bv2 64) ?x68598)))
 (let ((?x68599 ((_ extract 1 1) ?x61781)))
 (let (($x68636 (= (_ bv1 1) ?x68599)))
 (let ((?x68007 (ite $x68636 (_ bv1 64) ?x58748)))
 (let ((?x68639 ((_ extract 0 0) ?x61781)))
 (let (($x68010 (= (_ bv1 1) ?x68639)))
 (let ((?x68538 (ite $x68010 (_ bv0 64) ?x68007)))
 (let (($x65488 (and (distinct (_ bv0 32) ?x61434) true)))
 (let ((?x68534 (ite $x65488 ?x68538 ?x68791)))
 (let ((?x68875 ((_ extract 31 0) ?x68534)))
 (let ((?x62798 ((_ zero_extend 32) ?x68875)))
 (let ((?x2374 ((_ extract 839 832) mem_c0000f45_79_992)))
 (let ((?x2364 ((_ extract 831 824) mem_c0000f45_79_992)))
 (let ((?x2349 ((_ extract 823 816) mem_c0000f45_79_992)))
 (let ((?x2357 ((_ extract 815 808) mem_c0000f45_79_992)))
 (let ((?x2362 ((_ extract 807 800) mem_c0000f45_79_992)))
 (let ((?x2363 ((_ extract 799 792) mem_c0000f45_79_992)))
 (let ((?x593 (concat (concat ((_ extract 783 776) mem_c0000f45_79_992) ((_ extract 791 784) mem_c0000f45_79_992)) ?x2363)))
 (let ((?x4215 (concat (concat (concat (concat ?x593 ?x2362) ?x2357) ?x2349) ?x2364)))
 (let ((?x3812 (concat ?x4215 ?x2374)))
 (let ((?x3646 (bvmul (_ bv18446744073709551615 64) ?x3812)))
 (let ((?x2427 ((_ extract 775 768) mem_c0000f45_79_992)))
 (let ((?x2419 ((_ extract 767 760) mem_c0000f45_79_992)))
 (let ((?x2429 ((_ extract 759 752) mem_c0000f45_79_992)))
 (let ((?x2417 ((_ extract 751 744) mem_c0000f45_79_992)))
 (let ((?x2410 ((_ extract 743 736) mem_c0000f45_79_992)))
 (let ((?x2411 ((_ extract 735 728) mem_c0000f45_79_992)))
 (let ((?x4124 (concat (concat ((_ extract 719 712) mem_c0000f45_79_992) ((_ extract 727 720) mem_c0000f45_79_992)) ?x2411)))
 (let ((?x3823 (concat (concat (concat (concat (concat ?x4124 ?x2410) ?x2417) ?x2429) ?x2419) ?x2427)))
 (let ((?x3827 (bvadd ?x3823 ?x3646)))
 (let ((?x3615 ((_ extract 824 824) mem_c0000f45_79_992)))
 (let ((?x3589 (concat ?x3615 ?x2374)))
 (let ((?x4638 (bvmul (_ bv511 9) ?x3589)))
 (let ((?x4203 ((_ extract 760 760) mem_c0000f45_79_992)))
 (let ((?x3607 (concat ?x4203 ?x2427)))
 (let ((?x3785 (bvadd ?x3607 ?x4638)))
 (let (($x4511 (bvule ?x3785 (_ bv399 9))))
 (let ((?x4614 ((_ extract 63 9) ?x3827)))
 (let (($x4610 (= (_ bv0 55) ?x4614)))
 (let (($x4615 (and $x4610 $x4511)))
 (let ((?x4508 (ite $x4615 ?x3827 (_ bv399 64))))
 (bvule ?x4508 ?x62798)))))))))))))))))))))))))))))))))))))))))))))))))))))))))))))))))))))))))))))))))))))))))))))))))))))))))))))))))))))))))))))))))))))))))))))))))))))))))))))))))))))))))))))))))))))))))))))
(minimize mem_c0000f45_79_992)
(minimize mem_c0080014_89_32)
(minimize syscall_stub_newfstatat_83_64)
(minimize mem_c0080020_87_32)
(maximize mem_c0000f45_79_992)
(minimize mem_c0080018_88_32)
(maximize mem_c0080024_86_32)
(minimize mem_c0001010_98_32)
(maximize mem_fffffffffffffff0_163_128)
(maximize mem_c0001010_98_32)
(minimize mem_fffffffffffffff0_163_128)
(maximize mem_c0080014_89_32)
(maximize mem_c0080020_87_32)
(minimize mem_c0080024_86_32)
(maximize mem_c0080018_88_32)
(maximize mem_c0080008_85_32)
(minimize mem_c0080008_85_32)
(maximize syscall_stub_newfstatat_83_64)
(minimize mem_c0080010_84_32)
(maximize mem_c0080010_84_32)
(check-sat)
(get-objectives)
